<instance format="XCSP3" type="CSP">
  <variables>
    <array id="x" size="[144]"> 0..11 </array>
  </variables>
  <constraints>
    <group>
      <extension>
        <list> %0 %1 </list>
        <conflicts> (0,0)(1,1)(2,2)(3,3)(4,4)(5,5)(6,6)(7,7)(8,8)(9,9)(10,10)(11,11) </conflicts>
      </extension>
      <args> x[0] x[102] </args>
      <args> x[0] x[110] </args>
      <args> x[0] x[63] </args>
      <args> x[0] x[66] </args>
      <args> x[0] x[80] </args>
      <args> x[0] x[86] </args>
      <args> x[103] x[10] </args>
      <args> x[109] x[10] </args>
      <args> x[100] x[37] </args>
      <args> x[100] x[39] </args>
      <args> x[100] x[54] </args>
      <args> x[100] x[72] </args>
      <args> x[100] x[74] </args>
      <args> x[102] x[123] </args>
      <args> x[102] x[134] </args>
      <args> x[102] x[25] </args>
      <args> x[104] x[132] </args>
      <args> x[105] x[87] </args>
      <args> x[108] x[135] </args>
      <args> x[112] x[11] </args>
      <args> x[110] x[123] </args>
      <args> x[110] x[25] </args>
      <args> x[110] x[65] </args>
      <args> x[111] x[143] </args>
      <args> x[106] x[112] </args>
      <args> x[113] x[130] </args>
      <args> x[113] x[143] </args>
      <args> x[114] x[129] </args>
      <args> x[114] x[135] </args>
      <args> x[114] x[6] </args>
      <args> x[10] x[115] </args>
      <args> x[109] x[115] </args>
      <args> x[115] x[12] </args>
      <args> x[115] x[21] </args>
      <args> x[115] x[71] </args>
      <args> x[116] x[19] </args>
      <args> x[116] x[35] </args>
      <args> x[116] x[53] </args>
      <args> x[116] x[8] </args>
      <args> x[111] x[117] </args>
      <args> x[117] x[13] </args>
      <args> x[117] x[45] </args>
      <args> x[118] x[35] </args>
      <args> x[119] x[131] </args>
      <args> x[119] x[61] </args>
      <args> x[119] x[92] </args>
      <args> x[12] x[137] </args>
      <args> x[12] x[21] </args>
      <args> x[107] x[120] </args>
      <args> x[121] x[1] </args>
      <args> x[114] x[121] </args>
      <args> x[121] x[135] </args>
      <args> x[121] x[142] </args>
      <args> x[121] x[6] </args>
      <args> x[122] x[30] </args>
      <args> x[122] x[4] </args>
      <args> x[124] x[133] </args>
      <args> x[124] x[33] </args>
      <args> x[124] x[47] </args>
      <args> x[124] x[64] </args>
      <args> x[124] x[95] </args>
      <args> x[113] x[125] </args>
      <args> x[125] x[130] </args>
      <args> x[125] x[143] </args>
      <args> x[126] x[136] </args>
      <args> x[127] x[95] </args>
      <args> x[108] x[128] </args>
      <args> x[128] x[135] </args>
      <args> x[128] x[40] </args>
      <args> x[128] x[59] </args>
      <args> x[108] x[129] </args>
      <args> x[129] x[135] </args>
      <args> x[129] x[59] </args>
      <args> x[13] x[143] </args>
      <args> x[130] x[143] </args>
      <args> x[107] x[131] </args>
      <args> x[133] x[36] </args>
      <args> x[133] x[46] </args>
      <args> x[133] x[64] </args>
      <args> x[134] x[66] </args>
      <args> x[106] x[139] </args>
      <args> x[11] x[139] </args>
      <args> x[112] x[139] </args>
      <args> x[139] x[60] </args>
      <args> x[139] x[99] </args>
      <args> x[141] x[14] </args>
      <args> x[14] x[18] </args>
      <args> x[14] x[49] </args>
      <args> x[140] x[36] </args>
      <args> x[140] x[64] </args>
      <args> x[140] x[95] </args>
      <args> x[142] x[1] </args>
      <args> x[135] x[142] </args>
      <args> x[142] x[59] </args>
      <args> x[106] x[15] </args>
      <args> x[112] x[15] </args>
      <args> x[139] x[15] </args>
      <args> x[15] x[16] </args>
      <args> x[15] x[99] </args>
      <args> x[11] x[16] </args>
      <args> x[16] x[60] </args>
      <args> x[16] x[75] </args>
      <args> x[16] x[99] </args>
      <args> x[17] x[24] </args>
      <args> x[17] x[92] </args>
      <args> x[141] x[18] </args>
      <args> x[18] x[52] </args>
      <args> x[138] x[19] </args>
      <args> x[20] x[30] </args>
      <args> x[103] x[21] </args>
      <args> x[109] x[21] </args>
      <args> x[141] x[22] </args>
      <args> x[22] x[52] </args>
      <args> x[22] x[87] </args>
      <args> x[107] x[23] </args>
      <args> x[23] x[61] </args>
      <args> x[119] x[24] </args>
      <args> x[25] x[86] </args>
      <args> x[26] x[39] </args>
      <args> x[26] x[7] </args>
      <args> x[105] x[28] </args>
      <args> x[104] x[29] </args>
      <args> x[126] x[29] </args>
      <args> x[136] x[29] </args>
      <args> x[29] x[94] </args>
      <args> x[10] x[3] </args>
      <args> x[115] x[3] </args>
      <args> x[12] x[3] </args>
      <args> x[21] x[3] </args>
      <args> x[3] x[71] </args>
      <args> x[27] x[30] </args>
      <args> x[106] x[32] </args>
      <args> x[11] x[32] </args>
      <args> x[112] x[32] </args>
      <args> x[139] x[32] </args>
      <args> x[32] x[38] </args>
      <args> x[32] x[75] </args>
      <args> x[32] x[99] </args>
      <args> x[19] x[35] </args>
      <args> x[35] x[8] </args>
      <args> x[33] x[36] </args>
      <args> x[36] x[64] </args>
      <args> x[36] x[95] </args>
      <args> x[37] x[39] </args>
      <args> x[37] x[54] </args>
      <args> x[37] x[74] </args>
      <args> x[106] x[38] </args>
      <args> x[112] x[38] </args>
      <args> x[38] x[99] </args>
      <args> x[27] x[4] </args>
      <args> x[1] x[40] </args>
      <args> x[129] x[40] </args>
      <args> x[135] x[40] </args>
      <args> x[40] x[59] </args>
      <args> x[101] x[41] </args>
      <args> x[20] x[41] </args>
      <args> x[30] x[41] </args>
      <args> x[41] x[62] </args>
      <args> x[41] x[67] </args>
      <args> x[18] x[43] </args>
      <args> x[28] x[43] </args>
      <args> x[43] x[52] </args>
      <args> x[43] x[87] </args>
      <args> x[119] x[44] </args>
      <args> x[120] x[44] </args>
      <args> x[131] x[44] </args>
      <args> x[17] x[44] </args>
      <args> x[44] x[92] </args>
      <args> x[111] x[45] </args>
      <args> x[113] x[45] </args>
      <args> x[130] x[45] </args>
      <args> x[143] x[45] </args>
      <args> x[36] x[46] </args>
      <args> x[46] x[64] </args>
      <args> x[127] x[47] </args>
      <args> x[140] x[47] </args>
      <args> x[46] x[47] </args>
      <args> x[47] x[64] </args>
      <args> x[47] x[95] </args>
      <args> x[136] x[48] </args>
      <args> x[48] x[98] </args>
      <args> x[104] x[5] </args>
      <args> x[48] x[5] </args>
      <args> x[5] x[78] </args>
      <args> x[5] x[98] </args>
      <args> x[37] x[51] </args>
      <args> x[51] x[7] </args>
      <args> x[51] x[74] </args>
      <args> x[105] x[52] </args>
      <args> x[49] x[52] </args>
      <args> x[52] x[87] </args>
      <args> x[53] x[8] </args>
      <args> x[39] x[54] </args>
      <args> x[54] x[96] </args>
      <args> x[109] x[55] </args>
      <args> x[115] x[55] </args>
      <args> x[12] x[55] </args>
      <args> x[137] x[55] </args>
      <args> x[3] x[55] </args>
      <args> x[55] x[9] </args>
      <args> x[141] x[56] </args>
      <args> x[18] x[56] </args>
      <args> x[22] x[56] </args>
      <args> x[28] x[56] </args>
      <args> x[56] x[87] </args>
      <args> x[118] x[57] </args>
      <args> x[19] x[57] </args>
      <args> x[53] x[57] </args>
      <args> x[57] x[81] </args>
      <args> x[57] x[91] </args>
      <args> x[10] x[58] </args>
      <args> x[109] x[58] </args>
      <args> x[137] x[58] </args>
      <args> x[21] x[58] </args>
      <args> x[58] x[71] </args>
      <args> x[1] x[59] </args>
      <args> x[108] x[59] </args>
      <args> x[135] x[59] </args>
      <args> x[1] x[6] </args>
      <args> x[108] x[6] </args>
      <args> x[135] x[6] </args>
      <args> x[107] x[61] </args>
      <args> x[101] x[62] </args>
      <args> x[20] x[62] </args>
      <args> x[30] x[62] </args>
      <args> x[4] x[62] </args>
      <args> x[62] x[76] </args>
      <args> x[110] x[63] </args>
      <args> x[123] x[63] </args>
      <args> x[25] x[63] </args>
      <args> x[63] x[66] </args>
      <args> x[63] x[80] </args>
      <args> x[63] x[86] </args>
      <args> x[64] x[95] </args>
      <args> x[65] x[66] </args>
      <args> x[101] x[67] </args>
      <args> x[122] x[67] </args>
      <args> x[20] x[67] </args>
      <args> x[30] x[67] </args>
      <args> x[4] x[67] </args>
      <args> x[67] x[76] </args>
      <args> x[116] x[68] </args>
      <args> x[138] x[68] </args>
      <args> x[19] x[68] </args>
      <args> x[35] x[68] </args>
      <args> x[57] x[68] </args>
      <args> x[103] x[71] </args>
      <args> x[109] x[71] </args>
      <args> x[12] x[71] </args>
      <args> x[137] x[71] </args>
      <args> x[21] x[71] </args>
      <args> x[72] x[74] </args>
      <args> x[106] x[75] </args>
      <args> x[11] x[75] </args>
      <args> x[112] x[75] </args>
      <args> x[38] x[75] </args>
      <args> x[30] x[76] </args>
      <args> x[4] x[76] </args>
      <args> x[104] x[78] </args>
      <args> x[126] x[78] </args>
      <args> x[136] x[78] </args>
      <args> x[29] x[78] </args>
      <args> x[48] x[78] </args>
      <args> x[78] x[97] </args>
      <args> x[13] x[79] </args>
      <args> x[130] x[79] </args>
      <args> x[79] x[84] </args>
      <args> x[138] x[8] </args>
      <args> x[19] x[8] </args>
      <args> x[66] x[80] </args>
      <args> x[35] x[81] </args>
      <args> x[122] x[82] </args>
      <args> x[27] x[82] </args>
      <args> x[30] x[82] </args>
      <args> x[4] x[82] </args>
      <args> x[62] x[82] </args>
      <args> x[67] x[82] </args>
      <args> x[76] x[82] </args>
      <args> x[100] x[83] </args>
      <args> x[37] x[83] </args>
      <args> x[39] x[83] </args>
      <args> x[54] x[83] </args>
      <args> x[72] x[83] </args>
      <args> x[74] x[83] </args>
      <args> x[13] x[84] </args>
      <args> x[143] x[84] </args>
      <args> x[66] x[86] </args>
      <args> x[107] x[88] </args>
      <args> x[119] x[88] </args>
      <args> x[120] x[88] </args>
      <args> x[131] x[88] </args>
      <args> x[17] x[88] </args>
      <args> x[44] x[88] </args>
      <args> x[61] x[88] </args>
      <args> x[88] x[92] </args>
      <args> x[124] x[89] </args>
      <args> x[127] x[89] </args>
      <args> x[140] x[89] </args>
      <args> x[33] x[89] </args>
      <args> x[36] x[89] </args>
      <args> x[64] x[89] </args>
      <args> x[115] x[9] </args>
      <args> x[137] x[9] </args>
      <args> x[71] x[9] </args>
      <args> x[113] x[90] </args>
      <args> x[143] x[90] </args>
      <args> x[79] x[90] </args>
      <args> x[84] x[90] </args>
      <args> x[116] x[91] </args>
      <args> x[131] x[92] </args>
      <args> x[104] x[94] </args>
      <args> x[132] x[94] </args>
      <args> x[136] x[94] </args>
      <args> x[104] x[97] </args>
      <args> x[126] x[97] </args>
      <args> x[132] x[97] </args>
      <args> x[94] x[97] </args>
      <args> x[104] x[98] </args>
      <args> x[126] x[98] </args>
      <args> x[132] x[98] </args>
      <args> x[136] x[98] </args>
      <args> x[94] x[98] </args>
      <args> x[11] x[99] </args>
      <args> x[112] x[99] </args>
    </group>
    <group>
      <extension>
        <list> %0 %1 </list>
        <conflicts> (0,0)(1,1)(2,2)(3,3)(4,4)(5,5)(6,6)(7,7)(8,8)(9,9)(10,10)(11,11) </conflicts>
      </extension>
      <args> x[0] x[123] </args>
      <args> x[0] x[134] </args>
      <args> x[0] x[25] </args>
      <args> x[0] x[65] </args>
      <args> x[108] x[1] </args>
      <args> x[135] x[1] </args>
      <args> x[10] x[12] </args>
      <args> x[10] x[137] </args>
      <args> x[10] x[21] </args>
      <args> x[100] x[51] </args>
      <args> x[100] x[7] </args>
      <args> x[100] x[96] </args>
      <args> x[101] x[20] </args>
      <args> x[101] x[27] </args>
      <args> x[101] x[30] </args>
      <args> x[101] x[4] </args>
      <args> x[102] x[110] </args>
      <args> x[102] x[63] </args>
      <args> x[102] x[65] </args>
      <args> x[102] x[66] </args>
      <args> x[102] x[80] </args>
      <args> x[102] x[86] </args>
      <args> x[103] x[137] </args>
      <args> x[104] x[126] </args>
      <args> x[104] x[136] </args>
      <args> x[105] x[141] </args>
      <args> x[106] x[60] </args>
      <args> x[103] x[109] </args>
      <args> x[109] x[137] </args>
      <args> x[106] x[11] </args>
      <args> x[11] x[60] </args>
      <args> x[110] x[134] </args>
      <args> x[110] x[66] </args>
      <args> x[110] x[80] </args>
      <args> x[110] x[86] </args>
      <args> x[112] x[60] </args>
      <args> x[111] x[113] </args>
      <args> x[114] x[1] </args>
      <args> x[108] x[114] </args>
      <args> x[114] x[128] </args>
      <args> x[114] x[142] </args>
      <args> x[114] x[40] </args>
      <args> x[114] x[59] </args>
      <args> x[103] x[115] </args>
      <args> x[115] x[137] </args>
      <args> x[115] x[58] </args>
      <args> x[116] x[138] </args>
      <args> x[116] x[81] </args>
      <args> x[113] x[117] </args>
      <args> x[117] x[125] </args>
      <args> x[117] x[130] </args>
      <args> x[117] x[143] </args>
      <args> x[117] x[79] </args>
      <args> x[117] x[84] </args>
      <args> x[116] x[118] </args>
      <args> x[118] x[138] </args>
      <args> x[118] x[19] </args>
      <args> x[118] x[53] </args>
      <args> x[118] x[8] </args>
      <args> x[118] x[81] </args>
      <args> x[118] x[91] </args>
      <args> x[107] x[119] </args>
      <args> x[103] x[12] </args>
      <args> x[109] x[12] </args>
      <args> x[119] x[120] </args>
      <args> x[120] x[131] </args>
      <args> x[120] x[17] </args>
      <args> x[120] x[24] </args>
      <args> x[120] x[61] </args>
      <args> x[120] x[92] </args>
      <args> x[108] x[121] </args>
      <args> x[121] x[128] </args>
      <args> x[121] x[129] </args>
      <args> x[121] x[40] </args>
      <args> x[121] x[59] </args>
      <args> x[101] x[122] </args>
      <args> x[122] x[20] </args>
      <args> x[122] x[27] </args>
      <args> x[122] x[76] </args>
      <args> x[123] x[134] </args>
      <args> x[123] x[65] </args>
      <args> x[123] x[66] </args>
      <args> x[123] x[80] </args>
      <args> x[123] x[86] </args>
      <args> x[124] x[127] </args>
      <args> x[124] x[140] </args>
      <args> x[124] x[36] </args>
      <args> x[124] x[46] </args>
      <args> x[111] x[125] </args>
      <args> x[125] x[13] </args>
      <args> x[125] x[45] </args>
      <args> x[126] x[132] </args>
      <args> x[127] x[33] </args>
      <args> x[127] x[64] </args>
      <args> x[128] x[1] </args>
      <args> x[128] x[129] </args>
      <args> x[128] x[142] </args>
      <args> x[129] x[1] </args>
      <args> x[111] x[13] </args>
      <args> x[113] x[13] </args>
      <args> x[130] x[13] </args>
      <args> x[13] x[45] </args>
      <args> x[111] x[130] </args>
      <args> x[132] x[136] </args>
      <args> x[127] x[133] </args>
      <args> x[133] x[140] </args>
      <args> x[133] x[33] </args>
      <args> x[133] x[95] </args>
      <args> x[134] x[65] </args>
      <args> x[139] x[16] </args>
      <args> x[139] x[38] </args>
      <args> x[139] x[75] </args>
      <args> x[105] x[14] </args>
      <args> x[14] x[28] </args>
      <args> x[14] x[52] </args>
      <args> x[14] x[87] </args>
      <args> x[127] x[140] </args>
      <args> x[140] x[33] </args>
      <args> x[108] x[142] </args>
      <args> x[129] x[142] </args>
      <args> x[11] x[15] </args>
      <args> x[15] x[38] </args>
      <args> x[15] x[60] </args>
      <args> x[15] x[75] </args>
      <args> x[106] x[16] </args>
      <args> x[112] x[16] </args>
      <args> x[16] x[38] </args>
      <args> x[107] x[17] </args>
      <args> x[119] x[17] </args>
      <args> x[131] x[17] </args>
      <args> x[17] x[61] </args>
      <args> x[105] x[18] </args>
      <args> x[18] x[28] </args>
      <args> x[18] x[49] </args>
      <args> x[18] x[87] </args>
      <args> x[20] x[27] </args>
      <args> x[20] x[4] </args>
      <args> x[137] x[21] </args>
      <args> x[105] x[22] </args>
      <args> x[14] x[22] </args>
      <args> x[18] x[22] </args>
      <args> x[22] x[28] </args>
      <args> x[22] x[49] </args>
      <args> x[119] x[23] </args>
      <args> x[120] x[23] </args>
      <args> x[131] x[23] </args>
      <args> x[17] x[23] </args>
      <args> x[23] x[24] </args>
      <args> x[23] x[92] </args>
      <args> x[107] x[24] </args>
      <args> x[131] x[24] </args>
      <args> x[24] x[61] </args>
      <args> x[24] x[92] </args>
      <args> x[123] x[25] </args>
      <args> x[134] x[25] </args>
      <args> x[25] x[65] </args>
      <args> x[25] x[66] </args>
      <args> x[25] x[80] </args>
      <args> x[100] x[26] </args>
      <args> x[26] x[37] </args>
      <args> x[26] x[51] </args>
      <args> x[26] x[54] </args>
      <args> x[26] x[72] </args>
      <args> x[26] x[74] </args>
      <args> x[26] x[83] </args>
      <args> x[26] x[96] </args>
      <args> x[141] x[28] </args>
      <args> x[28] x[49] </args>
      <args> x[28] x[87] </args>
      <args> x[132] x[29] </args>
      <args> x[29] x[97] </args>
      <args> x[103] x[3] </args>
      <args> x[109] x[3] </args>
      <args> x[137] x[3] </args>
      <args> x[3] x[58] </args>
      <args> x[3] x[9] </args>
      <args> x[30] x[4] </args>
      <args> x[15] x[32] </args>
      <args> x[16] x[32] </args>
      <args> x[32] x[60] </args>
      <args> x[138] x[35] </args>
      <args> x[127] x[36] </args>
      <args> x[37] x[72] </args>
      <args> x[37] x[96] </args>
      <args> x[11] x[38] </args>
      <args> x[38] x[60] </args>
      <args> x[108] x[40] </args>
      <args> x[142] x[40] </args>
      <args> x[122] x[41] </args>
      <args> x[27] x[41] </args>
      <args> x[41] x[4] </args>
      <args> x[41] x[76] </args>
      <args> x[105] x[43] </args>
      <args> x[14] x[43] </args>
      <args> x[141] x[43] </args>
      <args> x[22] x[43] </args>
      <args> x[43] x[49] </args>
      <args> x[43] x[56] </args>
      <args> x[107] x[44] </args>
      <args> x[23] x[44] </args>
      <args> x[24] x[44] </args>
      <args> x[44] x[61] </args>
      <args> x[127] x[46] </args>
      <args> x[140] x[46] </args>
      <args> x[33] x[46] </args>
      <args> x[46] x[95] </args>
      <args> x[133] x[47] </args>
      <args> x[33] x[47] </args>
      <args> x[36] x[47] </args>
      <args> x[104] x[48] </args>
      <args> x[126] x[48] </args>
      <args> x[132] x[48] </args>
      <args> x[29] x[48] </args>
      <args> x[48] x[94] </args>
      <args> x[48] x[97] </args>
      <args> x[105] x[49] </args>
      <args> x[141] x[49] </args>
      <args> x[49] x[87] </args>
      <args> x[126] x[5] </args>
      <args> x[132] x[5] </args>
      <args> x[136] x[5] </args>
      <args> x[29] x[5] </args>
      <args> x[5] x[94] </args>
      <args> x[5] x[97] </args>
      <args> x[39] x[51] </args>
      <args> x[51] x[54] </args>
      <args> x[51] x[72] </args>
      <args> x[51] x[96] </args>
      <args> x[141] x[52] </args>
      <args> x[28] x[52] </args>
      <args> x[138] x[53] </args>
      <args> x[19] x[53] </args>
      <args> x[35] x[53] </args>
      <args> x[53] x[81] </args>
      <args> x[54] x[74] </args>
      <args> x[10] x[55] </args>
      <args> x[103] x[55] </args>
      <args> x[21] x[55] </args>
      <args> x[55] x[58] </args>
      <args> x[55] x[71] </args>
      <args> x[105] x[56] </args>
      <args> x[14] x[56] </args>
      <args> x[49] x[56] </args>
      <args> x[52] x[56] </args>
      <args> x[116] x[57] </args>
      <args> x[138] x[57] </args>
      <args> x[35] x[57] </args>
      <args> x[57] x[8] </args>
      <args> x[103] x[58] </args>
      <args> x[12] x[58] </args>
      <args> x[128] x[6] </args>
      <args> x[129] x[6] </args>
      <args> x[142] x[6] </args>
      <args> x[40] x[6] </args>
      <args> x[59] x[6] </args>
      <args> x[131] x[61] </args>
      <args> x[122] x[62] </args>
      <args> x[27] x[62] </args>
      <args> x[62] x[67] </args>
      <args> x[134] x[63] </args>
      <args> x[63] x[65] </args>
      <args> x[33] x[64] </args>
      <args> x[27] x[67] </args>
      <args> x[118] x[68] </args>
      <args> x[53] x[68] </args>
      <args> x[68] x[8] </args>
      <args> x[68] x[81] </args>
      <args> x[68] x[91] </args>
      <args> x[37] x[7] </args>
      <args> x[39] x[7] </args>
      <args> x[54] x[7] </args>
      <args> x[72] x[7] </args>
      <args> x[74] x[7] </args>
      <args> x[7] x[96] </args>
      <args> x[10] x[71] </args>
      <args> x[39] x[72] </args>
      <args> x[54] x[72] </args>
      <args> x[72] x[96] </args>
      <args> x[39] x[74] </args>
      <args> x[74] x[96] </args>
      <args> x[60] x[75] </args>
      <args> x[75] x[99] </args>
      <args> x[101] x[76] </args>
      <args> x[20] x[76] </args>
      <args> x[27] x[76] </args>
      <args> x[132] x[78] </args>
      <args> x[78] x[94] </args>
      <args> x[78] x[98] </args>
      <args> x[111] x[79] </args>
      <args> x[113] x[79] </args>
      <args> x[125] x[79] </args>
      <args> x[143] x[79] </args>
      <args> x[45] x[79] </args>
      <args> x[134] x[80] </args>
      <args> x[65] x[80] </args>
      <args> x[80] x[86] </args>
      <args> x[138] x[81] </args>
      <args> x[19] x[81] </args>
      <args> x[81] x[8] </args>
      <args> x[101] x[82] </args>
      <args> x[20] x[82] </args>
      <args> x[41] x[82] </args>
      <args> x[51] x[83] </args>
      <args> x[7] x[83] </args>
      <args> x[83] x[96] </args>
      <args> x[111] x[84] </args>
      <args> x[113] x[84] </args>
      <args> x[125] x[84] </args>
      <args> x[130] x[84] </args>
      <args> x[45] x[84] </args>
      <args> x[134] x[86] </args>
      <args> x[65] x[86] </args>
      <args> x[141] x[87] </args>
      <args> x[23] x[88] </args>
      <args> x[24] x[88] </args>
      <args> x[133] x[89] </args>
      <args> x[46] x[89] </args>
      <args> x[47] x[89] </args>
      <args> x[89] x[95] </args>
      <args> x[10] x[9] </args>
      <args> x[103] x[9] </args>
      <args> x[109] x[9] </args>
      <args> x[12] x[9] </args>
      <args> x[21] x[9] </args>
      <args> x[58] x[9] </args>
      <args> x[111] x[90] </args>
      <args> x[117] x[90] </args>
      <args> x[125] x[90] </args>
      <args> x[13] x[90] </args>
      <args> x[130] x[90] </args>
      <args> x[45] x[90] </args>
      <args> x[138] x[91] </args>
      <args> x[19] x[91] </args>
      <args> x[35] x[91] </args>
      <args> x[53] x[91] </args>
      <args> x[8] x[91] </args>
      <args> x[81] x[91] </args>
      <args> x[107] x[92] </args>
      <args> x[61] x[92] </args>
      <args> x[126] x[94] </args>
      <args> x[33] x[95] </args>
      <args> x[39] x[96] </args>
      <args> x[136] x[97] </args>
      <args> x[29] x[98] </args>
      <args> x[97] x[98] </args>
      <args> x[106] x[99] </args>
      <args> x[60] x[99] </args>
    </group>
    <group>
      <extension>
        <list> %0 %1 </list>
        <supports> (0,0)(1,1)(2,2)(3,3)(4,4)(5,5)(6,6)(7,7)(8,8)(9,9)(10,10)(11,11) </supports>
      </extension>
      <args> x[10] x[34] </args>
      <args> x[103] x[42] </args>
      <args> x[109] x[69] </args>
      <args> x[115] x[85] </args>
      <args> x[12] x[77] </args>
      <args> x[21] x[2] </args>
      <args> x[3] x[73] </args>
      <args> x[50] x[55] </args>
      <args> x[31] x[58] </args>
      <args> x[71] x[93] </args>
      <args> x[70] x[9] </args>
    </group>
    <group>
      <extension>
        <list> %0 %1 </list>
        <conflicts> (0,0)(1,0)(0,1)(1,1)(2,2)(3,3)(4,4)(5,5)(6,6)(7,7)(8,8)(9,9)(10,10)(11,11) </conflicts>
      </extension>
      <args> x[124] x[2] </args>
      <args> x[127] x[2] </args>
      <args> x[133] x[2] </args>
      <args> x[140] x[2] </args>
      <args> x[2] x[33] </args>
      <args> x[2] x[36] </args>
      <args> x[2] x[46] </args>
      <args> x[2] x[47] </args>
      <args> x[2] x[64] </args>
      <args> x[2] x[89] </args>
      <args> x[2] x[95] </args>
      <args> x[1] x[31] </args>
      <args> x[108] x[31] </args>
      <args> x[114] x[31] </args>
      <args> x[121] x[31] </args>
      <args> x[128] x[31] </args>
      <args> x[129] x[31] </args>
      <args> x[135] x[31] </args>
      <args> x[142] x[31] </args>
      <args> x[31] x[40] </args>
      <args> x[31] x[59] </args>
      <args> x[31] x[6] </args>
      <args> x[104] x[34] </args>
      <args> x[126] x[34] </args>
      <args> x[132] x[34] </args>
      <args> x[136] x[34] </args>
      <args> x[29] x[34] </args>
      <args> x[34] x[48] </args>
      <args> x[34] x[5] </args>
      <args> x[34] x[78] </args>
      <args> x[34] x[94] </args>
      <args> x[34] x[97] </args>
      <args> x[34] x[98] </args>
      <args> x[111] x[42] </args>
      <args> x[113] x[42] </args>
      <args> x[117] x[42] </args>
      <args> x[125] x[42] </args>
      <args> x[13] x[42] </args>
      <args> x[130] x[42] </args>
      <args> x[143] x[42] </args>
      <args> x[42] x[45] </args>
      <args> x[42] x[79] </args>
      <args> x[42] x[84] </args>
      <args> x[42] x[90] </args>
      <args> x[105] x[50] </args>
      <args> x[14] x[50] </args>
      <args> x[141] x[50] </args>
      <args> x[18] x[50] </args>
      <args> x[22] x[50] </args>
      <args> x[28] x[50] </args>
      <args> x[43] x[50] </args>
      <args> x[49] x[50] </args>
      <args> x[50] x[52] </args>
      <args> x[50] x[56] </args>
      <args> x[50] x[87] </args>
      <args> x[106] x[69] </args>
      <args> x[11] x[69] </args>
      <args> x[112] x[69] </args>
      <args> x[139] x[69] </args>
      <args> x[15] x[69] </args>
      <args> x[16] x[69] </args>
      <args> x[32] x[69] </args>
      <args> x[38] x[69] </args>
      <args> x[60] x[69] </args>
      <args> x[69] x[75] </args>
      <args> x[69] x[99] </args>
      <args> x[107] x[70] </args>
      <args> x[119] x[70] </args>
      <args> x[120] x[70] </args>
      <args> x[131] x[70] </args>
      <args> x[17] x[70] </args>
      <args> x[23] x[70] </args>
      <args> x[24] x[70] </args>
      <args> x[44] x[70] </args>
      <args> x[61] x[70] </args>
      <args> x[70] x[88] </args>
      <args> x[70] x[92] </args>
      <args> x[100] x[73] </args>
      <args> x[26] x[73] </args>
      <args> x[37] x[73] </args>
      <args> x[39] x[73] </args>
      <args> x[51] x[73] </args>
      <args> x[54] x[73] </args>
      <args> x[73] x[7] </args>
      <args> x[72] x[73] </args>
      <args> x[73] x[74] </args>
      <args> x[73] x[83] </args>
      <args> x[73] x[96] </args>
      <args> x[101] x[77] </args>
      <args> x[122] x[77] </args>
      <args> x[20] x[77] </args>
      <args> x[27] x[77] </args>
      <args> x[30] x[77] </args>
      <args> x[4] x[77] </args>
      <args> x[41] x[77] </args>
      <args> x[62] x[77] </args>
      <args> x[67] x[77] </args>
      <args> x[76] x[77] </args>
      <args> x[77] x[82] </args>
      <args> x[116] x[85] </args>
      <args> x[118] x[85] </args>
      <args> x[138] x[85] </args>
      <args> x[19] x[85] </args>
      <args> x[35] x[85] </args>
      <args> x[53] x[85] </args>
      <args> x[57] x[85] </args>
      <args> x[68] x[85] </args>
      <args> x[85] x[8] </args>
      <args> x[81] x[85] </args>
      <args> x[85] x[91] </args>
      <args> x[0] x[93] </args>
      <args> x[102] x[93] </args>
      <args> x[110] x[93] </args>
      <args> x[123] x[93] </args>
      <args> x[134] x[93] </args>
      <args> x[25] x[93] </args>
      <args> x[63] x[93] </args>
      <args> x[65] x[93] </args>
      <args> x[66] x[93] </args>
      <args> x[80] x[93] </args>
      <args> x[86] x[93] </args>
    </group>
  </constraints>
</instance>
